7
2147483647 39 61 80 56 65 36 
39 2147483647 82 51 47 100 84 
61 82 2147483647 32 47 76 88 
80 51 32 2147483647 17 58 1 
56 47 47 17 2147483647 51 54 
65 100 76 58 51 2147483647 26 
36 84 88 1 54 26 2147483647 
